(declare-const __VERIFIER_assert__cond___7 Int)
(declare-const __VERIFIER_assert__cond___16 Int)
(declare-const |phi___VERIFIER_assert__cond___11:347:738:767| Int)
(declare-const |havoc:31:62:722:733:761:790| Int)
(declare-const havoc Int)
(declare-const |__tmp_383_0':139:163:170:339:747:776| Int)
(declare-const |__VERIFIER_assert__cond___3':297:320:329:729:757:786| Int)
(declare-const __VERIFIER_assert__cond___8 Int)
(declare-const |havoc:24:60:273:332:732:760:789| Int)
(declare-const |phi_main____CPAchecker_TMP_0:348:737:766| Int)
(declare-const |__VERIFIER_assert__cond___8':300:316:325:725:753:782| Int)
(declare-const |main__t':140:160:167:336:744:773| Int)
(declare-const |K:158:159:166:335:743:772| Int)
(declare-const |phi_main____CPAchecker_TMP_0___0:345:740:769| Int)
(declare-const main____CPAchecker_TMP_6 Int)
(declare-const |main____CPAchecker_TMP_4':296:321:330:730:758:787| Int)
(declare-const main____CPAchecker_TMP_4 Int)
(declare-const |main____CPAchecker_TMP_6':301:318:327:727:755:784| Int)
(declare-const |phi___tmp_383_0:351:734:763| Int)
(declare-const |main__t':140:317:326:726:754:783| Int)
(declare-const |havoc:9:59:138:334:342:750:779| Int)
(declare-const |phi___VERIFIER_assert__cond___15:344:741:770| Int)
(declare-const __VERIFIER_assert__cond___3 Int)
(declare-const |K:313:314:323:723:751:780| Int)
(declare-const |phi_main__t:349:736:765| Int)
(declare-const main____CPAchecker_TMP_3 Int)
(declare-const __VERIFIER_assert__cond___11 Int)
(declare-const |main____CPAchecker_TMP_3':295:322:331:731:759:788| Int)
(declare-const __VERIFIER_assert__cond___12 Int)
(declare-const |phi___tmp_247_0:350:735:764| Int)
(declare-const |__VERIFIER_assert__cond___15':143:161:168:337:745:774| Int)
(declare-const |__VERIFIER_assert__cond___4':298:319:328:728:756:785| Int)
(declare-const __tmp_383_0 Int)
(declare-const |phi___VERIFIER_assert__cond___12:346:739:768| Int)
(declare-const |__VERIFIER_assert__cond___16':144:164:171:340:748:777| Int)
(declare-const __VERIFIER_assert__cond___4 Int)
(declare-const |phi___VERIFIER_assert__cond___16:343:742:771| Int)
(declare-const main____CPAchecker_TMP_0___0 Int)
(declare-const |__VERIFIER_assert__cond___7':299:315:324:724:752:781| Int)
(declare-const __VERIFIER_assert__cond___15 Int)
(declare-const |main____CPAchecker_TMP_0___0':142:165:172:341:749:778| Int)
(declare-const |main____CPAchecker_TMP_0':141:162:169:338:746:775| Int)
(declare-const |havoc:3:58:762| Int)
(assert (and (<= (+ (- havoc) 1) 0) (not (= (+ (- havoc) 1) 0))
               (or (and (not (= |havoc:3:58:762| 0))
                          (= (+ (- |phi___tmp_383_0:351:734:763|) __tmp_383_0) 0)
                          (= (+ (- |phi___tmp_247_0:350:735:764|)
                                  |havoc:3:58:762|) 0)
                          (= (- |phi_main__t:349:736:765|) 0)
                          (= (+ (- |phi_main____CPAchecker_TMP_0:348:737:766|)
                                  |havoc:3:58:762|) 0)
                          (= (+ (- |phi___VERIFIER_assert__cond___11:347:738:767|)
                                  __VERIFIER_assert__cond___11) 0)
                          (= (+ (- |phi___VERIFIER_assert__cond___12:346:739:768|)
                                  __VERIFIER_assert__cond___12) 0)
                          (= (+ (- |phi_main____CPAchecker_TMP_0___0:345:740:769|)
                                  main____CPAchecker_TMP_0___0) 0)
                          (= (+ (- |phi___VERIFIER_assert__cond___15:344:741:770|)
                                  __VERIFIER_assert__cond___15) 0)
                          (= (+ (- |phi___VERIFIER_assert__cond___16:343:742:771|)
                                  __VERIFIER_assert__cond___16) 0))
                     (and (= |havoc:3:58:762| 0)
                            (not (= (ite (<= (+ (- havoc) 1) 0) 1 0) 0))
                            (or (not (<= (- |K:158:159:166:335:743:772|) 0))
                                  (= (+ |main__t':140:160:167:336:744:773|
                                          (- |K:158:159:166:335:743:772|)) 0))
                            (or (not (and (<= (- |K:158:159:166:335:743:772|) 0)
                                            (<= |K:158:159:166:335:743:772| 0)))
                                  (= (+ |__VERIFIER_assert__cond___15':143:161:168:337:745:774|
                                          (- __VERIFIER_assert__cond___15)) 0))
                            (or (not (<= (+ (- |K:158:159:166:335:743:772|) 1) 0))
                                  (= (+ |__VERIFIER_assert__cond___15':143:161:168:337:745:774|
                                          -1) 0))
                            (or (not (and (<= (- |K:158:159:166:335:743:772|) 0)
                                            (<= |K:158:159:166:335:743:772| 0)))
                                  (= (+ |main____CPAchecker_TMP_0':141:162:169:338:746:775|
                                          (- |havoc:3:58:762|)) 0))
                            (or (not (<= (+ (- |K:158:159:166:335:743:772|) 1) 0))
                                  (= |main____CPAchecker_TMP_0':141:162:169:338:746:775| 0))
                            (or (not (and (<= (- |K:158:159:166:335:743:772|) 0)
                                            (<= |K:158:159:166:335:743:772| 0)))
                                  (= (+ |__tmp_383_0':139:163:170:339:747:776|
                                          (- |havoc:3:58:762|)) 0))
                            (or (not (<= (+ (- |K:158:159:166:335:743:772|) 1) 0))
                                  (= |__tmp_383_0':139:163:170:339:747:776| 0))
                            (or (not (and (<= (- |K:158:159:166:335:743:772|) 0)
                                            (<= |K:158:159:166:335:743:772| 0)))
                                  (= (+ |__VERIFIER_assert__cond___16':144:164:171:340:748:777|
                                          (- __VERIFIER_assert__cond___16)) 0))
                            (or (not (<= (+ (- |K:158:159:166:335:743:772|) 1) 0))
                                  (= (+ |__VERIFIER_assert__cond___16':144:164:171:340:748:777|
                                          -1) 0))
                            (or (not (and (<= (- |K:158:159:166:335:743:772|) 0)
                                            (<= |K:158:159:166:335:743:772| 0)))
                                  (= (+ |main____CPAchecker_TMP_0___0':142:165:172:341:749:778|
                                          (- main____CPAchecker_TMP_0___0)) 0))
                            (or (not (<= (+ (- |K:158:159:166:335:743:772|) 1) 0))
                                  (= |main____CPAchecker_TMP_0___0':142:165:172:341:749:778| 0))
                            (or (and (= |K:158:159:166:335:743:772| 0)
                                       (= (+ (- |__VERIFIER_assert__cond___16':144:164:171:340:748:777|)
                                               __VERIFIER_assert__cond___16) 0)
                                       (= (+ (- |__VERIFIER_assert__cond___15':143:161:168:337:745:774|)
                                               __VERIFIER_assert__cond___15) 0)
                                       (= (+ (- |main____CPAchecker_TMP_0___0':142:165:172:341:749:778|)
                                               main____CPAchecker_TMP_0___0) 0)
                                       (= (+ (- |main____CPAchecker_TMP_0':141:162:169:338:746:775|)
                                               |havoc:3:58:762|) 0)
                                       (= (- |main__t':140:160:167:336:744:773|) 0)
                                       (= (+ (- |__tmp_383_0':139:163:170:339:747:776|)
                                               |havoc:3:58:762|) 0))
                                  (and (<= (+ (- |K:158:159:166:335:743:772|)
                                                1) 0) (= |havoc:3:58:762| 0)
                                         (= |havoc:3:58:762| 0)
                                         (<= (+ (- havoc) 3) 0)
                                         (= (+ |__VERIFIER_assert__cond___16':144:164:171:340:748:777|
                                                 -1) 0)
                                         (= (+ |__VERIFIER_assert__cond___15':143:161:168:337:745:774|
                                                 -1) 0)
                                         (= |main____CPAchecker_TMP_0':141:162:169:338:746:775| 0)
                                         (= |main____CPAchecker_TMP_0___0':142:165:172:341:749:778| 0)
                                         (= |__tmp_383_0':139:163:170:339:747:776| 0)
                                         (<= (+ |main__t':140:160:167:336:744:773|
                                                  (- havoc) 2) 0)
                                         (<= (+ (- |main__t':140:160:167:336:744:773|)
                                                  1) 0)))
                            (<= (- |K:158:159:166:335:743:772|) 0)
                            (= |__tmp_383_0':139:163:170:339:747:776| 0)
                            (= |main____CPAchecker_TMP_0':141:162:169:338:746:775| 0)
                            (<= (- |main__t':140:160:167:336:744:773|) 0)
                            (< (+ (- havoc) 1) 0)
                            (= |__tmp_383_0':139:163:170:339:747:776| 0)
                            (= |main____CPAchecker_TMP_0':141:162:169:338:746:775| 0)
                            (not (= (+ |main__t':140:160:167:336:744:773|
                                         (- havoc) 2) 0))
                            (not (= |havoc:9:59:138:334:342:750:779| 0))
                            (= (+ |__tmp_383_0':139:163:170:339:747:776|
                                    (- |phi___tmp_383_0:351:734:763|)) 0)
                            (= (+ |havoc:9:59:138:334:342:750:779|
                                    (- |phi___tmp_247_0:350:735:764|)) 0)
                            (= (+ |main__t':140:160:167:336:744:773|
                                    (- |phi_main__t:349:736:765|) 1) 0)
                            (= (+ |__tmp_383_0':139:163:170:339:747:776|
                                    (- |phi_main____CPAchecker_TMP_0:348:737:766|)) 0)
                            (= (+ (- |phi___VERIFIER_assert__cond___11:347:738:767|)
                                    1) 0)
                            (= (+ (ite (<= (+ (- havoc) 1) 0) 1 0)
                                    (- |phi___VERIFIER_assert__cond___12:346:739:768|)) 0)
                            (= (+ |havoc:9:59:138:334:342:750:779|
                                    (- |phi_main____CPAchecker_TMP_0___0:345:740:769|)) 0)
                            (= (+ |__VERIFIER_assert__cond___15':143:161:168:337:745:774|
                                    (- |phi___VERIFIER_assert__cond___15:344:741:770|)) 0)
                            (= (+ |__VERIFIER_assert__cond___16':144:164:171:340:748:777|
                                    (- |phi___VERIFIER_assert__cond___16:343:742:771|)) 0)))
               (not (= (ite (<= (- |phi_main__t:349:736:765|) 0) 1 0) 0))
               (not (= (ite (<= (+ |phi_main__t:349:736:765| (- havoc) 1) 0)
                            1 0) 0))
               (or (not (and (<= (- |K:313:314:323:723:751:780|) 0)
                               (<= |K:313:314:323:723:751:780| 0)))
                     (= (+ (- __VERIFIER_assert__cond___7)
                             |__VERIFIER_assert__cond___7':299:315:324:724:752:781|) 0))
               (or (not (<= (+ (- |K:313:314:323:723:751:780|) 1) 0))
                     (= (+ |__VERIFIER_assert__cond___7':299:315:324:724:752:781|
                             -1) 0))
               (or (not (and (<= (- |K:313:314:323:723:751:780|) 0)
                               (<= |K:313:314:323:723:751:780| 0)))
                     (= (+ (- __VERIFIER_assert__cond___8)
                             |__VERIFIER_assert__cond___8':300:316:325:725:753:782|) 0))
               (or (not (<= (+ (- |K:313:314:323:723:751:780|) 1) 0))
                     (= (+ |__VERIFIER_assert__cond___8':300:316:325:725:753:782|
                             -1) 0))
               (or (not (<= (- |K:313:314:323:723:751:780|) 0))
                     (<= (+ |main__t':140:317:326:726:754:783|
                              (* -2 |K:313:314:323:723:751:780|)
                              (- |phi_main__t:349:736:765|) -1) 0))
               (or (not (<= (- |K:313:314:323:723:751:780|) 0))
                     (<= (+ |main__t':140:317:326:726:754:783|
                              (* 2 |K:313:314:323:723:751:780|)
                              (- |phi_main__t:349:736:765|)
                              (- (* |K:313:314:323:723:751:780| havoc)) -1) 0))
               (or (not (<= (- |K:313:314:323:723:751:780|) 0))
                     (<= (+ (- |main__t':140:317:326:726:754:783|)
                              |K:313:314:323:723:751:780|
                              |phi_main__t:349:736:765| 1) 0))
               (or (and (= |K:313:314:323:723:751:780| 0)
                          (= (+ (- |main____CPAchecker_TMP_6':301:318:327:727:755:784|)
                                  main____CPAchecker_TMP_6) 0)
                          (= (+ __VERIFIER_assert__cond___8
                                  (- |__VERIFIER_assert__cond___8':300:316:325:725:753:782|)) 0)
                          (= (+ __VERIFIER_assert__cond___7
                                  (- |__VERIFIER_assert__cond___7':299:315:324:724:752:781|)) 0)
                          (= (+ (- |__VERIFIER_assert__cond___4':298:319:328:728:756:785|)
                                  __VERIFIER_assert__cond___4) 0)
                          (= (+ (- |__VERIFIER_assert__cond___3':297:320:329:729:757:786|)
                                  __VERIFIER_assert__cond___3) 0)
                          (= (+ (- |main____CPAchecker_TMP_4':296:321:330:730:758:787|)
                                  main____CPAchecker_TMP_4) 0)
                          (= (+ (- |main____CPAchecker_TMP_3':295:322:331:731:759:788|)
                                  main____CPAchecker_TMP_3) 0)
                          (= (+ (- |main__t':140:317:326:726:754:783|)
                                  |phi_main__t:349:736:765| 1) 0))
                     (and (<= (+ (- |K:313:314:323:723:751:780|) 1) 0)
                            (<= (+ |phi_main__t:349:736:765| (- havoc) 3) 0)
                            (<= (- |phi_main__t:349:736:765|) 0)
                            (= (+ |__VERIFIER_assert__cond___8':300:316:325:725:753:782|
                                    -1) 0)
                            (= (+ |__VERIFIER_assert__cond___7':299:315:324:724:752:781|
                                    -1) 0)
                            (<= (+ |main__t':140:317:326:726:754:783|
                                     (- havoc) 1) 0)
                            (<= (+ (- |main__t':140:317:326:726:754:783|) 2) 0)))
               (<= (- |K:313:314:323:723:751:780|) 0)
               (< (- |main__t':140:317:326:726:754:783|) 0)
               (< (+ (- havoc) 1) 0)
               (not (= (+ |main__t':140:317:326:726:754:783| (- havoc) 1) 0))
               (not (= |havoc:24:60:273:332:732:760:789| 0))
               (not (= |havoc:31:62:722:733:761:790| 0))
               (not (= (ite (<= (- |main__t':140:317:326:726:754:783|) 0) 1 0) 0))
               (not (= (ite (<= (+ |main__t':140:317:326:726:754:783|
                                     (- havoc) 1) 0)
                            1 0) 0))
               (= (+ |main__t':140:317:326:726:754:783| (- havoc) 2) 0)
               (not (= (ite (<= (+ (- |main__t':140:317:326:726:754:783|) -1) 0)
                            1 0) 0))
               (= (ite (<= (+ |main__t':140:317:326:726:754:783| (- havoc) 2) 0)
                       1 0) 0)))
(check-sat)
